N = 9;
H = 6;
T = 2;

avail = array3d(1..N, 1..H, 1..T, [1, 5, 0, 6, 1, 2, 10, 8, 8, 0, 1, 7, 9, 9, 6, 8, 1, 5, 10, 3, 10, 10, 9, 3, 3, 9, 9, 5, 8, 5, 5, 8, 6, 7, 7, 7, 2, 3, 1, 9, 0, 0, 8, 1, 7, 0, 8, 2, 0, 2, 2, 1, 4, 3, 2, 1, 1, 1, 8, 1, 5, 1, 5, 4, 2, 3, 4, 7, 7, 1, 5, 4, 5, 2, 10, 10, 5, 4, 4, 6, 3, 9, 5, 6, 0, 6, 6, 4, 8, 8, 7, 2, 8, 2, 0, 4, 9, 6, 5, 8, 2, 3, 1, 0, 8, 6, 5, 9]);

r = array2d(1..H, 1..T, [5, 2, 2, 1, 5, 2, 0, 2, 2, 2, 3, 4]);
